
Gurobi 9.0.1 (linux64, C++) logging started Wed Mar 18 01:39:14 2020

Academic license - for non-commercial use only
Gurobi Optimizer version 9.0.1 build v9.0.1rc0 (linux64)
Optimize a model with 13 rows, 21 columns and 31 nonzeros
Model fingerprint: 0x147967a7
Variable types: 0 continuous, 21 integer (7 binary)
Coefficient statistics:
  Matrix range     [1e+00, 1e+05]
  Objective range  [1e+00, 4e+01]
  Bounds range     [1e+00, 1e+00]
  RHS range        [3e+00, 8e+00]
Found heuristic solution: objective 278.0000000
Presolve removed 4 rows and 7 columns
Presolve time: 0.00s
Presolved: 9 rows, 14 columns, 22 nonzeros
Variable types: 0 continuous, 14 integer (5 binary)

Root relaxation: objective 1.570051e+02, 8 iterations, 0.00 seconds

    Nodes    |    Current Node    |     Objective Bounds      |     Work
 Expl Unexpl |  Obj  Depth IntInf | Incumbent    BestBd   Gap | It/Node Time

     0     0  157.00511    0    2  278.00000  157.00511  43.5%     -    0s
H    0     0                     210.0000000  157.00511  25.2%     -    0s
H    0     0                     195.0000000  157.00511  19.5%     -    0s
H    0     0                     185.0000000  157.00511  15.1%     -    0s
     0     0  176.00000    0    1  185.00000  176.00000  4.86%     -    0s

Cutting planes:
  Implied bound: 2
  Flow cover: 1
  Relax-and-lift: 1

Explored 1 nodes (11 simplex iterations) in 0.00 seconds
Thread count was 4 (of 4 available processors)

Solution count 4: 185 195 210 278 

Optimal solution found (tolerance 1.00e-04)
Best objective 1.850000000000e+02, best bound 1.850000000000e+02, gap 0.0000%

Gurobi 9.0.1 (linux64, C++) logging started Wed Mar 18 01:39:44 2020

Academic license - for non-commercial use only
Gurobi Optimizer version 9.0.1 build v9.0.1rc0 (linux64)
Optimize a model with 13 rows, 21 columns and 31 nonzeros
Model fingerprint: 0x06c86ff0
Variable types: 0 continuous, 21 integer (7 binary)
Coefficient statistics:
  Matrix range     [1e+00, 5e+00]
  Objective range  [1e+00, 4e+01]
  Bounds range     [1e+00, 1e+00]
  RHS range        [3e+00, 8e+00]
Presolve removed 0 rows and 3 columns
Presolve time: 0.00s

Explored 0 nodes (0 simplex iterations) in 0.00 seconds
Thread count was 1 (of 4 available processors)

Solution count 0

Model is infeasible
Best objective -, best bound -, gap -

Gurobi 9.0.1 (linux64, C++) logging started Wed Mar 18 01:39:55 2020

Academic license - for non-commercial use only
Gurobi Optimizer version 9.0.1 build v9.0.1rc0 (linux64)
Optimize a model with 13 rows, 21 columns and 31 nonzeros
Model fingerprint: 0x45cf8c66
Variable types: 0 continuous, 21 integer (7 binary)
Coefficient statistics:
  Matrix range     [1e+00, 7e+00]
  Objective range  [1e+00, 4e+01]
  Bounds range     [1e+00, 1e+00]
  RHS range        [3e+00, 8e+00]
Found heuristic solution: objective 278.0000000
Presolve removed 9 rows and 15 columns
Presolve time: 0.00s
Presolved: 4 rows, 6 columns, 9 nonzeros
Variable types: 0 continuous, 6 integer (3 binary)

Root relaxation: objective 2.370000e+02, 4 iterations, 0.00 seconds

    Nodes    |    Current Node    |     Objective Bounds      |     Work
 Expl Unexpl |  Obj  Depth IntInf | Incumbent    BestBd   Gap | It/Node Time

*    0     0               0     237.0000000  237.00000  0.00%     -    0s

Explored 0 nodes (4 simplex iterations) in 0.00 seconds
Thread count was 4 (of 4 available processors)

Solution count 2: 237 278 

Optimal solution found (tolerance 1.00e-04)
Best objective 2.370000000000e+02, best bound 2.370000000000e+02, gap 0.0000%

Gurobi 9.0.1 (linux64, C++) logging started Wed Mar 18 01:39:59 2020

Academic license - for non-commercial use only
Gurobi Optimizer version 9.0.1 build v9.0.1rc0 (linux64)
Optimize a model with 13 rows, 21 columns and 31 nonzeros
Model fingerprint: 0x99013f1c
Variable types: 0 continuous, 21 integer (7 binary)
Coefficient statistics:
  Matrix range     [1e+00, 6e+00]
  Objective range  [1e+00, 4e+01]
  Bounds range     [1e+00, 1e+00]
  RHS range        [3e+00, 8e+00]
Presolve removed 2 rows and 6 columns
Presolve time: 0.00s

Explored 0 nodes (0 simplex iterations) in 0.00 seconds
Thread count was 1 (of 4 available processors)

Solution count 0

Model is infeasible
Best objective -, best bound -, gap -

Gurobi 9.0.1 (linux64, C++) logging started Wed Mar 18 01:40:32 2020

Academic license - for non-commercial use only
Gurobi Optimizer version 9.0.1 build v9.0.1rc0 (linux64)
Optimize a model with 13 rows, 21 columns and 31 nonzeros
Model fingerprint: 0x45cf8c66
Variable types: 0 continuous, 21 integer (7 binary)
Coefficient statistics:
  Matrix range     [1e+00, 7e+00]
  Objective range  [1e+00, 4e+01]
  Bounds range     [1e+00, 1e+00]
  RHS range        [3e+00, 8e+00]
Found heuristic solution: objective 278.0000000
Presolve removed 9 rows and 15 columns
Presolve time: 0.00s
Presolved: 4 rows, 6 columns, 9 nonzeros
Variable types: 0 continuous, 6 integer (3 binary)

Root relaxation: objective 2.370000e+02, 4 iterations, 0.00 seconds

    Nodes    |    Current Node    |     Objective Bounds      |     Work
 Expl Unexpl |  Obj  Depth IntInf | Incumbent    BestBd   Gap | It/Node Time

*    0     0               0     237.0000000  237.00000  0.00%     -    0s

Explored 0 nodes (4 simplex iterations) in 0.00 seconds
Thread count was 4 (of 4 available processors)

Solution count 2: 237 278 

Optimal solution found (tolerance 1.00e-04)
Best objective 2.370000000000e+02, best bound 2.370000000000e+02, gap 0.0000%
